c read Graph
c width = 130
c time = 82 ms
c width = 16
c time = 153 ms
c width = 15
c time = 194 ms
c width = 14
c time = 228 ms
c width = 13
c time = 242 ms
c width = 12
c time = 584 ms
c width = 11
c time = 3353 ms
c width = 11
c time = 4980 ms
s td 131 12 143
b 1 1 2 14
b 2 2 3 14 15
b 3 11 12 25 26
b 4 3 14 15 27
b 5 11 25 26 39
b 6 105 118 119 132
b 7 117 129 130 142
b 8 105 119 132 133
b 9 117 129 141 142
b 10 3 4 5 17
b 11 3 5 16 17 28 40
b 12 5 16 17 28 30 40 42
b 13 5 17 28 30 40 42 54
b 14 5 17 30 40 42 54 66
b 15 5 17 19 30 31 42 54 66
b 16 5 19 30 31 42 44 54 56 66
b 17 30 42 43 44 56
b 18 5 17 18 19 31
b 19 40 53 54 66
b 20 28 40 41 42 54
b 21 16 28 29 30 42
b 22 3 16 27 28 40
b 23 3 15 16 27 28
b 24 5 6 19 31 42 44 54 56 66
b 25 6 7 19 31 42 44 54 56 66
b 26 7 8 19 20 31 42 44 54 56 66
b 27 8 9 19 20 21 31 42 44 54 56 66
b 28 9 19 20 21 31 32 42 44 54 56 66
b 29 9 20 21 31 32 33 42 44 54 56 66
b 30 9 21 32 33 42 44 45 54 56 66
b 31 9 21 33 34 42 44 45 46 54 56 66
b 32 9 21 34 35 42 44 45 46 47 54 56 66
b 33 9 21 35 42 44 45 46 47 54 56 66 68
b 34 9 21 35 44 45 46 47 54 56 57 66 68
b 35 9 21 35 45 46 47 54 56 57 58 66 68
b 36 9 21 35 46 47 54 56 57 58 59 66 68
b 37 9 21 35 47 54 56 57 58 59 66 68 80
b 38 9 21 35 47 56 57 58 59 66 68 69 80
b 39 9 21 35 47 57 58 59 66 68 69 70 80
b 40 9 21 35 47 58 59 66 68 69 70 71 80
b 41 9 21 35 47 59 66 68 69 70 71 79 80
b 42 9 21 35 47 59 68 69 70 71 79 80 81
b 43 9 21 35 47 59 69 70 71 79 80 81 82
b 44 9 21 35 47 59 70 71 79 80 81 82 83
b 45 9 21 35 47 59 71 79 80 81 82 83 92
b 46 9 21 35 47 59 71 80 81 82 83 92 93
b 47 9 21 35 47 59 71 81 82 83 92 93 94
b 48 9 21 35 47 59 71 82 83 92 93 94 95
b 49 9 21 35 47 59 71 83 92 93 94 95 105
b 50 9 21 35 47 59 71 83 93 94 95 105 106
b 51 9 21 35 47 59 71 83 94 95 105 106 107
b 52 9 21 35 47 59 71 83 95 105 106 107 119
b 53 9 21 35 47 59 71 83 95 105 107 119 133
b 54 9 21 35 47 59 71 83 95 107 119 120 133
b 55 9 21 35 47 59 71 83 95 107 108 120 133
b 56 9 21 35 47 59 71 83 95 96 108 120 133
b 57 9 21 35 47 59 71 83 84 96 108 120 133
b 58 9 21 35 47 59 71 72 84 96 108 120 133
b 59 9 21 35 47 59 60 72 84 96 108 120 133
b 60 9 21 35 47 48 60 72 84 96 108 120 133
b 61 9 21 35 48 60 72 84 96 108 120 121 133
b 62 9 21 35 48 60 72 84 96 108 109 121 133
b 63 9 21 35 48 60 72 84 96 97 109 121 133
b 64 9 21 35 48 60 72 84 85 97 109 121 133
b 65 9 21 35 48 60 72 73 85 97 109 121 133
b 66 9 21 35 48 60 61 73 85 97 109 121 133
b 67 9 21 35 48 61 73 85 97 109 121 133 134
b 68 9 21 35 48 61 73 85 97 109 121 122 134
b 69 9 21 35 48 61 73 85 97 109 110 122 134
b 70 9 21 35 48 61 73 85 97 98 110 122 134
b 71 9 21 35 48 61 73 85 86 98 110 122 134
b 72 9 21 35 48 61 73 74 86 98 110 122 134
b 73 9 21 35 48 61 62 74 86 98 110 122 134
b 74 9 21 35 48 62 74 86 98 110 122 134 135
b 75 9 21 35 48 62 74 86 98 110 122 123 135
b 76 9 21 35 48 62 74 86 98 110 111 123 135
b 77 9 21 35 48 62 74 86 98 99 111 123 135
b 78 9 21 35 48 62 74 86 87 99 111 123 135
b 79 9 21 35 48 62 74 75 87 99 111 123 135
b 80 9 21 35 48 62 75 87 99 111 123 135 136
b 81 9 21 35 48 62 75 87 99 111 123 124 136
b 82 9 21 35 48 62 75 87 99 111 112 124 136
b 83 9 21 35 48 62 75 87 99 100 112 124 136
b 84 9 21 35 48 62 75 87 88 100 112 124 136
b 85 9 21 35 48 62 75 76 88 100 112 124 136
b 86 9 21 35 48 62 76 88 100 112 124 136 137
b 87 9 21 35 48 62 76 88 100 112 124 125 137
b 88 9 21 35 48 62 76 88 100 112 125 137 138
b 89 9 21 35 48 62 76 88 100 112 125 126 138
b 90 9 21 35 48 62 76 88 100 112 114 126 138
b 91 9 21 35 48 62 76 88 100 102 114 126 138
b 92 9 21 35 48 62 76 88 90 102 114 126 138
b 93 9 21 35 48 62 76 78 90 102 114 126 138
b 94 9 21 35 48 62 64 76 78 90 114 126 138
b 95 54 66 67 68 80
b 96 42 54 55 56 68
b 97 64 76 77 78 90
b 98 9 21 35 48 50 62 64 76 78
b 99 50 62 63 64 76
b 100 9 21 35 36 48 50 62 64 78
b 101 36 48 49 50 62
b 102 9 21 23 35 36 50 64 78
b 103 9 21 22 23 35
b 104 9 23 36 50 52 64 78
b 105 52 64 65 78
b 106 9 23 36 38 50 52 64
b 107 38 50 51 52 64
b 108 9 23 24 36 38 50 52
b 109 9 11 23 24 38 52
b 110 11 24 38 39 52
b 111 11 24 25 38 39
b 112 9 10 11 23
b 113 24 36 37 38 50
b 114 78 90 102 114 126 138 140
b 115 126 138 139 140
b 116 78 90 102 104 114 126 140
b 117 90 102 104 114 126 128 140
b 118 90 102 104 114 116 128 140
b 119 104 116 128 140 141
b 120 104 116 117 128 141
b 121 116 117 128 129 141
b 122 102 114 115 116 128
b 123 90 102 103 104 116
b 124 114 126 127 128 140
b 125 78 90 91 104
b 126 88 100 101 102 114
b 127 76 88 89 90 102
b 128 100 112 113 114 126
b 129 130 142 143
b 130 118 131 132
b 131 12 13 26
1 2
2 4
3 131
3 5
4 23
5 111
6 130
6 8
7 129
7 9
8 53
9 121
10 11
11 22
11 12
12 21
12 13
13 20
13 14
14 19
14 15
15 18
15 16
16 24
16 17
22 23
24 25
25 26
26 27
27 28
28 29
29 30
30 31
31 32
32 33
33 96
33 34
34 35
35 36
36 37
37 95
37 38
38 39
39 40
40 41
41 42
42 43
43 44
44 45
45 46
46 47
47 48
48 49
49 50
50 51
51 52
52 53
53 54
54 55
55 56
56 57
57 58
58 59
59 60
60 61
61 62
62 63
63 64
64 65
65 66
66 67
67 68
68 69
69 70
70 71
71 72
72 73
73 74
74 75
75 76
76 77
77 78
78 79
79 80
80 81
81 82
82 83
83 84
84 85
85 86
86 87
87 88
88 89
89 90
90 128
90 91
91 126
91 92
92 127
92 93
93 114
93 94
94 97
94 98
98 99
98 100
100 101
100 102
102 103
102 104
104 105
104 106
106 107
106 108
108 113
108 109
109 112
109 110
110 111
114 115
114 116
116 125
116 117
117 124
117 118
118 119
118 123
118 122
119 120
120 121
